c *********************************
c * Circuit generated by BenCGen
c *
c * RippleCarryAdder_50_50_50_InOutT
c *
c * Ports with 1 gate(s): 1
c * Ports with 2 gate(s): 251
c * Total gates: 252
c *********************************
p cnf 352 855
1 153 0
-1 -153 0
1 -152 0
153 -152 0
-1 -153 152 0
1 51 -155 0
-1 51 155 0
1 -51 155 0
-1 -51 -155 0
155 152 -101 0
-155 152 101 0
155 -152 101 0
-155 -152 -101 0
152 -156 0
155 -156 0
-152 -155 156 0
51 -157 0
1 -157 0
-51 -1 157 0
-156 154 0
-157 154 0
156 157 -154 0
2 52 -159 0
-2 52 159 0
2 -52 159 0
-2 -52 -159 0
159 154 -102 0
-159 154 102 0
159 -154 102 0
-159 -154 -102 0
154 -160 0
159 -160 0
-154 -159 160 0
52 -161 0
2 -161 0
-52 -2 161 0
-160 158 0
-161 158 0
160 161 -158 0
3 53 -163 0
-3 53 163 0
3 -53 163 0
-3 -53 -163 0
163 158 -103 0
-163 158 103 0
163 -158 103 0
-163 -158 -103 0
158 -164 0
163 -164 0
-158 -163 164 0
53 -165 0
3 -165 0
-53 -3 165 0
-164 162 0
-165 162 0
164 165 -162 0
4 54 -167 0
-4 54 167 0
4 -54 167 0
-4 -54 -167 0
167 162 -104 0
-167 162 104 0
167 -162 104 0
-167 -162 -104 0
162 -168 0
167 -168 0
-162 -167 168 0
54 -169 0
4 -169 0
-54 -4 169 0
-168 166 0
-169 166 0
168 169 -166 0
5 55 -171 0
-5 55 171 0
5 -55 171 0
-5 -55 -171 0
171 166 -105 0
-171 166 105 0
171 -166 105 0
-171 -166 -105 0
166 -172 0
171 -172 0
-166 -171 172 0
55 -173 0
5 -173 0
-55 -5 173 0
-172 170 0
-173 170 0
172 173 -170 0
6 56 -175 0
-6 56 175 0
6 -56 175 0
-6 -56 -175 0
175 170 -106 0
-175 170 106 0
175 -170 106 0
-175 -170 -106 0
170 -176 0
175 -176 0
-170 -175 176 0
56 -177 0
6 -177 0
-56 -6 177 0
-176 174 0
-177 174 0
176 177 -174 0
7 57 -179 0
-7 57 179 0
7 -57 179 0
-7 -57 -179 0
179 174 -107 0
-179 174 107 0
179 -174 107 0
-179 -174 -107 0
174 -180 0
179 -180 0
-174 -179 180 0
57 -181 0
7 -181 0
-57 -7 181 0
-180 178 0
-181 178 0
180 181 -178 0
8 58 -183 0
-8 58 183 0
8 -58 183 0
-8 -58 -183 0
183 178 -108 0
-183 178 108 0
183 -178 108 0
-183 -178 -108 0
178 -184 0
183 -184 0
-178 -183 184 0
58 -185 0
8 -185 0
-58 -8 185 0
-184 182 0
-185 182 0
184 185 -182 0
9 59 -187 0
-9 59 187 0
9 -59 187 0
-9 -59 -187 0
187 182 -109 0
-187 182 109 0
187 -182 109 0
-187 -182 -109 0
182 -188 0
187 -188 0
-182 -187 188 0
59 -189 0
9 -189 0
-59 -9 189 0
-188 186 0
-189 186 0
188 189 -186 0
10 60 -191 0
-10 60 191 0
10 -60 191 0
-10 -60 -191 0
191 186 -110 0
-191 186 110 0
191 -186 110 0
-191 -186 -110 0
186 -192 0
191 -192 0
-186 -191 192 0
60 -193 0
10 -193 0
-60 -10 193 0
-192 190 0
-193 190 0
192 193 -190 0
11 61 -195 0
-11 61 195 0
11 -61 195 0
-11 -61 -195 0
195 190 -111 0
-195 190 111 0
195 -190 111 0
-195 -190 -111 0
190 -196 0
195 -196 0
-190 -195 196 0
61 -197 0
11 -197 0
-61 -11 197 0
-196 194 0
-197 194 0
196 197 -194 0
12 62 -199 0
-12 62 199 0
12 -62 199 0
-12 -62 -199 0
199 194 -112 0
-199 194 112 0
199 -194 112 0
-199 -194 -112 0
194 -200 0
199 -200 0
-194 -199 200 0
62 -201 0
12 -201 0
-62 -12 201 0
-200 198 0
-201 198 0
200 201 -198 0
13 63 -203 0
-13 63 203 0
13 -63 203 0
-13 -63 -203 0
203 198 -113 0
-203 198 113 0
203 -198 113 0
-203 -198 -113 0
198 -204 0
203 -204 0
-198 -203 204 0
63 -205 0
13 -205 0
-63 -13 205 0
-204 202 0
-205 202 0
204 205 -202 0
14 64 -207 0
-14 64 207 0
14 -64 207 0
-14 -64 -207 0
207 202 -114 0
-207 202 114 0
207 -202 114 0
-207 -202 -114 0
202 -208 0
207 -208 0
-202 -207 208 0
64 -209 0
14 -209 0
-64 -14 209 0
-208 206 0
-209 206 0
208 209 -206 0
15 65 -211 0
-15 65 211 0
15 -65 211 0
-15 -65 -211 0
211 206 -115 0
-211 206 115 0
211 -206 115 0
-211 -206 -115 0
206 -212 0
211 -212 0
-206 -211 212 0
65 -213 0
15 -213 0
-65 -15 213 0
-212 210 0
-213 210 0
212 213 -210 0
16 66 -215 0
-16 66 215 0
16 -66 215 0
-16 -66 -215 0
215 210 -116 0
-215 210 116 0
215 -210 116 0
-215 -210 -116 0
210 -216 0
215 -216 0
-210 -215 216 0
66 -217 0
16 -217 0
-66 -16 217 0
-216 214 0
-217 214 0
216 217 -214 0
17 67 -219 0
-17 67 219 0
17 -67 219 0
-17 -67 -219 0
219 214 -117 0
-219 214 117 0
219 -214 117 0
-219 -214 -117 0
214 -220 0
219 -220 0
-214 -219 220 0
67 -221 0
17 -221 0
-67 -17 221 0
-220 218 0
-221 218 0
220 221 -218 0
18 68 -223 0
-18 68 223 0
18 -68 223 0
-18 -68 -223 0
223 218 -118 0
-223 218 118 0
223 -218 118 0
-223 -218 -118 0
218 -224 0
223 -224 0
-218 -223 224 0
68 -225 0
18 -225 0
-68 -18 225 0
-224 222 0
-225 222 0
224 225 -222 0
19 69 -227 0
-19 69 227 0
19 -69 227 0
-19 -69 -227 0
227 222 -119 0
-227 222 119 0
227 -222 119 0
-227 -222 -119 0
222 -228 0
227 -228 0
-222 -227 228 0
69 -229 0
19 -229 0
-69 -19 229 0
-228 226 0
-229 226 0
228 229 -226 0
20 70 -231 0
-20 70 231 0
20 -70 231 0
-20 -70 -231 0
231 226 -120 0
-231 226 120 0
231 -226 120 0
-231 -226 -120 0
226 -232 0
231 -232 0
-226 -231 232 0
70 -233 0
20 -233 0
-70 -20 233 0
-232 230 0
-233 230 0
232 233 -230 0
21 71 -235 0
-21 71 235 0
21 -71 235 0
-21 -71 -235 0
235 230 -121 0
-235 230 121 0
235 -230 121 0
-235 -230 -121 0
230 -236 0
235 -236 0
-230 -235 236 0
71 -237 0
21 -237 0
-71 -21 237 0
-236 234 0
-237 234 0
236 237 -234 0
22 72 -239 0
-22 72 239 0
22 -72 239 0
-22 -72 -239 0
239 234 -122 0
-239 234 122 0
239 -234 122 0
-239 -234 -122 0
234 -240 0
239 -240 0
-234 -239 240 0
72 -241 0
22 -241 0
-72 -22 241 0
-240 238 0
-241 238 0
240 241 -238 0
23 73 -243 0
-23 73 243 0
23 -73 243 0
-23 -73 -243 0
243 238 -123 0
-243 238 123 0
243 -238 123 0
-243 -238 -123 0
238 -244 0
243 -244 0
-238 -243 244 0
73 -245 0
23 -245 0
-73 -23 245 0
-244 242 0
-245 242 0
244 245 -242 0
24 74 -247 0
-24 74 247 0
24 -74 247 0
-24 -74 -247 0
247 242 -124 0
-247 242 124 0
247 -242 124 0
-247 -242 -124 0
242 -248 0
247 -248 0
-242 -247 248 0
74 -249 0
24 -249 0
-74 -24 249 0
-248 246 0
-249 246 0
248 249 -246 0
25 75 -251 0
-25 75 251 0
25 -75 251 0
-25 -75 -251 0
251 246 -125 0
-251 246 125 0
251 -246 125 0
-251 -246 -125 0
246 -252 0
251 -252 0
-246 -251 252 0
75 -253 0
25 -253 0
-75 -25 253 0
-252 250 0
-253 250 0
252 253 -250 0
26 76 -255 0
-26 76 255 0
26 -76 255 0
-26 -76 -255 0
255 250 -126 0
-255 250 126 0
255 -250 126 0
-255 -250 -126 0
250 -256 0
255 -256 0
-250 -255 256 0
76 -257 0
26 -257 0
-76 -26 257 0
-256 254 0
-257 254 0
256 257 -254 0
27 77 -259 0
-27 77 259 0
27 -77 259 0
-27 -77 -259 0
259 254 -127 0
-259 254 127 0
259 -254 127 0
-259 -254 -127 0
254 -260 0
259 -260 0
-254 -259 260 0
77 -261 0
27 -261 0
-77 -27 261 0
-260 258 0
-261 258 0
260 261 -258 0
28 78 -263 0
-28 78 263 0
28 -78 263 0
-28 -78 -263 0
263 258 -128 0
-263 258 128 0
263 -258 128 0
-263 -258 -128 0
258 -264 0
263 -264 0
-258 -263 264 0
78 -265 0
28 -265 0
-78 -28 265 0
-264 262 0
-265 262 0
264 265 -262 0
29 79 -267 0
-29 79 267 0
29 -79 267 0
-29 -79 -267 0
267 262 -129 0
-267 262 129 0
267 -262 129 0
-267 -262 -129 0
262 -268 0
267 -268 0
-262 -267 268 0
79 -269 0
29 -269 0
-79 -29 269 0
-268 266 0
-269 266 0
268 269 -266 0
30 80 -271 0
-30 80 271 0
30 -80 271 0
-30 -80 -271 0
271 266 -130 0
-271 266 130 0
271 -266 130 0
-271 -266 -130 0
266 -272 0
271 -272 0
-266 -271 272 0
80 -273 0
30 -273 0
-80 -30 273 0
-272 270 0
-273 270 0
272 273 -270 0
31 81 -275 0
-31 81 275 0
31 -81 275 0
-31 -81 -275 0
275 270 -131 0
-275 270 131 0
275 -270 131 0
-275 -270 -131 0
270 -276 0
275 -276 0
-270 -275 276 0
81 -277 0
31 -277 0
-81 -31 277 0
-276 274 0
-277 274 0
276 277 -274 0
32 82 -279 0
-32 82 279 0
32 -82 279 0
-32 -82 -279 0
279 274 -132 0
-279 274 132 0
279 -274 132 0
-279 -274 -132 0
274 -280 0
279 -280 0
-274 -279 280 0
82 -281 0
32 -281 0
-82 -32 281 0
-280 278 0
-281 278 0
280 281 -278 0
33 83 -283 0
-33 83 283 0
33 -83 283 0
-33 -83 -283 0
283 278 -133 0
-283 278 133 0
283 -278 133 0
-283 -278 -133 0
278 -284 0
283 -284 0
-278 -283 284 0
83 -285 0
33 -285 0
-83 -33 285 0
-284 282 0
-285 282 0
284 285 -282 0
34 84 -287 0
-34 84 287 0
34 -84 287 0
-34 -84 -287 0
287 282 -134 0
-287 282 134 0
287 -282 134 0
-287 -282 -134 0
282 -288 0
287 -288 0
-282 -287 288 0
84 -289 0
34 -289 0
-84 -34 289 0
-288 286 0
-289 286 0
288 289 -286 0
35 85 -291 0
-35 85 291 0
35 -85 291 0
-35 -85 -291 0
291 286 -135 0
-291 286 135 0
291 -286 135 0
-291 -286 -135 0
286 -292 0
291 -292 0
-286 -291 292 0
85 -293 0
35 -293 0
-85 -35 293 0
-292 290 0
-293 290 0
292 293 -290 0
36 86 -295 0
-36 86 295 0
36 -86 295 0
-36 -86 -295 0
295 290 -136 0
-295 290 136 0
295 -290 136 0
-295 -290 -136 0
290 -296 0
295 -296 0
-290 -295 296 0
86 -297 0
36 -297 0
-86 -36 297 0
-296 294 0
-297 294 0
296 297 -294 0
37 87 -299 0
-37 87 299 0
37 -87 299 0
-37 -87 -299 0
299 294 -137 0
-299 294 137 0
299 -294 137 0
-299 -294 -137 0
294 -300 0
299 -300 0
-294 -299 300 0
87 -301 0
37 -301 0
-87 -37 301 0
-300 298 0
-301 298 0
300 301 -298 0
38 88 -303 0
-38 88 303 0
38 -88 303 0
-38 -88 -303 0
303 298 -138 0
-303 298 138 0
303 -298 138 0
-303 -298 -138 0
298 -304 0
303 -304 0
-298 -303 304 0
88 -305 0
38 -305 0
-88 -38 305 0
-304 302 0
-305 302 0
304 305 -302 0
39 89 -307 0
-39 89 307 0
39 -89 307 0
-39 -89 -307 0
307 302 -139 0
-307 302 139 0
307 -302 139 0
-307 -302 -139 0
302 -308 0
307 -308 0
-302 -307 308 0
89 -309 0
39 -309 0
-89 -39 309 0
-308 306 0
-309 306 0
308 309 -306 0
40 90 -311 0
-40 90 311 0
40 -90 311 0
-40 -90 -311 0
311 306 -140 0
-311 306 140 0
311 -306 140 0
-311 -306 -140 0
306 -312 0
311 -312 0
-306 -311 312 0
90 -313 0
40 -313 0
-90 -40 313 0
-312 310 0
-313 310 0
312 313 -310 0
41 91 -315 0
-41 91 315 0
41 -91 315 0
-41 -91 -315 0
315 310 -141 0
-315 310 141 0
315 -310 141 0
-315 -310 -141 0
310 -316 0
315 -316 0
-310 -315 316 0
91 -317 0
41 -317 0
-91 -41 317 0
-316 314 0
-317 314 0
316 317 -314 0
42 92 -319 0
-42 92 319 0
42 -92 319 0
-42 -92 -319 0
319 314 -142 0
-319 314 142 0
319 -314 142 0
-319 -314 -142 0
314 -320 0
319 -320 0
-314 -319 320 0
92 -321 0
42 -321 0
-92 -42 321 0
-320 318 0
-321 318 0
320 321 -318 0
43 93 -323 0
-43 93 323 0
43 -93 323 0
-43 -93 -323 0
323 318 -143 0
-323 318 143 0
323 -318 143 0
-323 -318 -143 0
318 -324 0
323 -324 0
-318 -323 324 0
93 -325 0
43 -325 0
-93 -43 325 0
-324 322 0
-325 322 0
324 325 -322 0
44 94 -327 0
-44 94 327 0
44 -94 327 0
-44 -94 -327 0
327 322 -144 0
-327 322 144 0
327 -322 144 0
-327 -322 -144 0
322 -328 0
327 -328 0
-322 -327 328 0
94 -329 0
44 -329 0
-94 -44 329 0
-328 326 0
-329 326 0
328 329 -326 0
45 95 -331 0
-45 95 331 0
45 -95 331 0
-45 -95 -331 0
331 326 -145 0
-331 326 145 0
331 -326 145 0
-331 -326 -145 0
326 -332 0
331 -332 0
-326 -331 332 0
95 -333 0
45 -333 0
-95 -45 333 0
-332 330 0
-333 330 0
332 333 -330 0
46 96 -335 0
-46 96 335 0
46 -96 335 0
-46 -96 -335 0
335 330 -146 0
-335 330 146 0
335 -330 146 0
-335 -330 -146 0
330 -336 0
335 -336 0
-330 -335 336 0
96 -337 0
46 -337 0
-96 -46 337 0
-336 334 0
-337 334 0
336 337 -334 0
47 97 -339 0
-47 97 339 0
47 -97 339 0
-47 -97 -339 0
339 334 -147 0
-339 334 147 0
339 -334 147 0
-339 -334 -147 0
334 -340 0
339 -340 0
-334 -339 340 0
97 -341 0
47 -341 0
-97 -47 341 0
-340 338 0
-341 338 0
340 341 -338 0
48 98 -343 0
-48 98 343 0
48 -98 343 0
-48 -98 -343 0
343 338 -148 0
-343 338 148 0
343 -338 148 0
-343 -338 -148 0
338 -344 0
343 -344 0
-338 -343 344 0
98 -345 0
48 -345 0
-98 -48 345 0
-344 342 0
-345 342 0
344 345 -342 0
49 99 -347 0
-49 99 347 0
49 -99 347 0
-49 -99 -347 0
347 342 -149 0
-347 342 149 0
347 -342 149 0
-347 -342 -149 0
342 -348 0
347 -348 0
-342 -347 348 0
99 -349 0
49 -349 0
-99 -49 349 0
-348 346 0
-349 346 0
348 349 -346 0
50 100 -350 0
-50 100 350 0
50 -100 350 0
-50 -100 -350 0
350 346 -150 0
-350 346 150 0
350 -346 150 0
-350 -346 -150 0
346 -351 0
350 -351 0
-346 -350 351 0
100 -352 0
50 -352 0
-100 -50 352 0
-351 151 0
-352 151 0
351 352 -151 0
